p wcnf 8 23 105
105 1 2 0
105 1 3 0
105 1 4 0
105 1 5 0
105 1 6 0
105 1 7 0
105 1 8 0
105 2 3 0
105 3 4 0
105 3 7 0
105 3 8 0
105 4 7 0
105 5 6 0
105 5 7 0
105 5 8 0
8 -1 0
13 -2 0
10 -3 0
12 -4 0
11 -5 0
13 -6 0
11 -7 0
12 -8 0
